solution status: optimal solution found
objective value:                                    0
one.ctrl_a[7].hole_y                               24 	(obj:0)
one.ctrl_a[7].hole_z                               23 	(obj:0)
one.ctrl_a[7].flush_y                              23 	(obj:0)
one.ctrl_a[7].flush_z                              23 	(obj:0)
one.pinholes[0].hole_out_b_y                       21 	(obj:0)
one.pinholes[0].hole_out_b_z                       22 	(obj:0)
one.ctrl_a[9].flush_y                              22 	(obj:0)
one.ctrl_a[9].flush_z                              23 	(obj:0)
one.thingy.devices[0].thingy.v11_y                   24 	(obj:0)
one.thingy.devices[0].thingy.v11_z                   22 	(obj:0)
one.ctrl_a[9].hole_y                               24 	(obj:0)
one.ctrl_a[9].hole_z                               21 	(obj:0)
one.ctrl_a[8].hole_y                               22 	(obj:0)
one.ctrl_a[8].hole_z                               24 	(obj:0)
one.ctrl_a[8].flush_y                              23 	(obj:0)
one.ctrl_a[8].flush_z                              24 	(obj:0)
one.thingy.devices[0].thingy.v10_y                   23 	(obj:0)
one.thingy.devices[0].thingy.v10_z                   22 	(obj:0)
